NAME : 10_3_3_3_(46).dat
COMMENT : Henke, Speranza, Wäscher, 2015
TYPE : MCVRP
DIMENSION : 11
EDGE_WEIGHT_TYPE : DISTANCE_MATRIX
CAPACITY : 1000
VEHICLES : 3
PRODUCT TYPES : 3
COMPARTMENTS : 3
NODE_COORD_SECTION
1 50 50
2 48.22 48.96
3 23.86 22.01
4 64.67 61.64
5 46.22 34.03
6 88.84 72.72
7 26.39 73.29
8 50.33 22.5
9 69.1 6.4
10 87.67 71.69
11 88.64 49.64
DEMAND_SECTION
1 0 0 0
2 87 82 22
3 102 40 42
4 83 16 38
5 39 62 11
6 91 25 42
7 93 74 42
8 59 37 33
9 21 47 39
10 101 14 24
11 94 66 15
DEPOT_SECTION
1
EOF